(set-option :smt.auto-config false)
(set-option :smt.mbqi false)
(set-option :sat.random_seed 488)
(set-option :smt.random_seed 599)
(set-option :nlsat.seed 611)
(set-option :memory_max_size 6000)
(declare-sort Man 0)
(declare-sort RegExStr 0)
(declare-sort RMode 0)
(declare-fun isShavedBy (Man) Man)
(declare-const barber Man)
(assert (! (forall ((xpy0 Man)) (! (and (or (= (isShavedBy xpy0) xpy0) (= (isShavedBy xpy0) barber)) (or (not (= (isShavedBy xpy0) xpy0)) (not (= (isShavedBy xpy0) barber)))) :pattern ((isShavedBy xpy0)) )) :named A0))
